33D32945 STP File, STP Format Version 1.0

SECTION Comments
Name "edge_n15_d5_s38"
Problem "Euclidean Steiner Tree Problem"
Remark "Generated with STPGenerator. 5 dimensions."
END

SECTION Graph
Nodes 15
END

SECTION Coordinates
DDDDD 0 0.5982263575 0.5982263575 0.5982263575 0.5982263575 0.5982263575
DDDDD 1 0.1752538104 0.1752538104 0.1752538104 0.1752538104 0.1752538104
DDDDD 2 0.4766825421 0.4766825421 0.4766825421 0.4766825421 0.4766825421
DDDDD 3 0.1399146664 0.1399146664 0.1399146664 0.1399146664 0.1399146664
DDDDD 4 0.4673976025 0.4673976025 0.4673976025 0.4673976025 0.4673976025
DDDDD 5 0.8627957766 0.8627957766 0.8627957766 0.8627957766 0.8627957766
DDDDD 6 0.6898134000 0.6898134000 0.6898134000 0.6898134000 0.6898134000
DDDDD 7 0.1803749400 0.1803749400 0.1803749400 0.1803749400 0.1803749400
DDDDD 8 0.5748512617 0.5748512617 0.5748512617 0.5748512617 0.5748512617
DDDDD 9 0.1829102199 0.1829102199 0.1829102199 0.1829102199 0.1829102199
DDDDD 10 0.3235021184 0.3235021184 0.3235021184 0.3235021184 0.3235021184
DDDDD 11 0.6120159149 0.6120159149 0.6120159149 0.6120159149 0.6120159149
DDDDD 12 0.7084588719 0.7084588719 0.7084588719 0.7084588719 0.7084588719
DDDDD 13 0.4244470016 0.4244470016 0.4244470016 0.4244470016 0.4244470016
DDDDD 14 0.6334648415 0.6334648415 0.6334648415 0.6334648415 0.6334648415
END
